<number of tasks>
53

<cycle time>
2004

<task times>
1 971
2 142
3 142
4 142
5 103
6 96
7 99
8 1207
9 160
10 180
11 82
12 60
13 112
14 420
15 1556
16 236
17 259
18 125
19 601
20 80
21 80
22 70
23 89
24 89
25 105
26 330
27 132
28 69
29 99
30 70
31 70
32 158
33 191
34 70
35 53
36 50
37 125
38 353
39 70
40 128
41 65
42 1775
43 91
44 91
45 113
46 487
47 138
48 80
49 80
50 65
51 40
52 742
53 1085

<precedence relations>
1,2
1,3
1,4
1,5
1,6
1,7
2,36
3,36
4,9
5,9
6,9
7,9
8,9
9,10
10,11
11,12
12,13
12,14
12,15
13,16
13,17
13,18
14,22
15,16
15,17
16,29
16,30
16,31
17,19
18,42
19,20
19,21
19,22
20,23
21,24
22,25
23,36
24,36
25,26
26,27
27,28
28,29
28,30
28,31
28,32
28,33
28,34
29,35
30,35
31,35
32,35
33,35
34,35
35,36
36,37
37,38
37,39
37,40
38,41
39,41
40,41
41,42
42,43
42,44
42,45
42,46
42,47
43,48
44,49
45,51
45,52
46,50
47,51
47,52
48,51
48,52
49,51
49,52
50,51
50,52
51,53
52,53

<setup times forward>
1,8:81
2,8:81
2,9:81
2,10:81
2,11:81
2,12:81
2,13:81
2,14:28
2,15:31
2,16:28
2,17:31
2,18:81
2,19:28
2,20:19
2,21:19
2,22:28
2,23:19
2,24:19
2,25:28
2,26:28
2,27:28
2,28:28
2,29:19
2,30:19
2,31:19
2,32:19
2,33:19
2,34:19
2,35:19
2,36:19
3,8:81
3,9:81
3,10:81
3,11:81
3,12:81
3,13:81
3,14:28
3,15:31
3,16:28
3,17:31
3,18:81
3,19:28
3,20:19
3,21:19
3,22:28
3,23:19
3,24:19
3,25:28
3,26:28
3,27:28
3,28:28
3,29:19
3,30:19
3,31:19
3,32:19
3,33:19
3,34:19
3,35:19
3,36:19
4,8:81
4,9:81
5,8:81
5,9:81
6,8:81
6,9:81
7,8:81
7,9:81
8,1:81
8,2:81
8,3:81
8,4:81
8,5:81
8,6:81
8,7:81
9,2:81
9,3:81
10,2:81
10,3:81
11,2:81
11,3:81
12,2:81
12,3:81
12,14:53
12,15:112
13,2:81
13,3:81
13,14:53
13,15:112
13,16:53
13,17:112
14,2:28
14,3:28
14,13:53
14,15:59
14,17:59
14,18:53
14,20:9
14,21:9
14,23:9
14,24:9
15,2:31
15,3:31
15,13:112
15,14:59
15,16:59
15,18:112
16,2:28
16,3:28
16,17:59
16,18:53
16,20:9
16,21:9
16,23:9
16,24:9
16,29:9
16,30:9
16,31:9
16,32:9
16,33:9
16,34:9
17,2:31
17,3:31
17,14:59
17,16:59
17,18:112
17,19:59
18,2:81
18,3:81
18,14:53
18,15:112
18,16:53
18,17:112
18,19:53
18,20:62
18,21:62
18,22:53
18,23:62
18,24:62
18,25:53
18,26:53
18,27:53
18,28:53
18,29:62
18,30:62
18,31:62
18,32:62
18,33:62
18,34:62
18,35:62
18,36:62
18,37:62
18,38:62
18,39:62
18,40:126
18,41:126
18,42:126
19,2:28
19,3:28
19,18:53
19,20:9
19,21:9
20,2:19
20,3:19
20,14:9
20,16:9
20,18:62
20,22:9
20,25:9
20,26:9
20,27:9
20,28:9
21,2:19
21,3:19
21,14:9
21,16:9
21,18:62
21,22:9
21,25:9
21,26:9
21,27:9
21,28:9
22,2:28
22,3:28
22,18:53
22,20:9
22,21:9
22,23:9
22,24:9
23,2:19
23,3:19
23,14:9
23,16:9
23,18:62
23,22:9
23,25:9
23,26:9
23,27:9
23,28:9
24,2:19
24,3:19
24,14:9
24,16:9
24,18:62
24,22:9
24,25:9
24,26:9
24,27:9
24,28:9
25,2:28
25,3:28
25,18:53
25,20:9
25,21:9
25,23:9
25,24:9
26,2:28
26,3:28
26,18:53
26,20:9
26,21:9
26,23:9
26,24:9
27,2:28
27,3:28
27,18:53
27,20:9
27,21:9
27,23:9
27,24:9
28,2:28
28,3:28
28,18:53
28,20:9
28,21:9
28,23:9
28,24:9
28,29:9
28,30:9
28,31:9
28,32:9
28,33:9
28,34:9
29,2:19
29,3:19
29,18:62
30,2:19
30,3:19
30,18:62
31,2:19
31,3:19
31,18:62
32,2:19
32,3:19
32,16:9
32,18:62
33,2:19
33,3:19
33,16:9
33,18:62
34,2:19
34,3:19
34,16:9
34,18:62
35,2:19
35,3:19
35,18:62
36,18:62
37,18:62
37,40:64
38,18:62
38,40:64
38,41:64
39,18:62
39,40:64
39,41:64
40,18:126
40,38:64
40,39:64
41,18:126
42,43:42
42,44:42
42,45:42
42,46:42
42,47:42
43,50:67
44,50:67
45,50:67
45,51:67
45,52:67
46,50:67
47,50:67
47,51:67
47,52:67
48,50:67
48,51:67
48,52:67
49,50:67
49,51:67
49,52:67
50,43:67
50,44:67
50,45:67
50,47:67
50,48:67
50,49:67

<setup times backward>
1,1:36
2,1:36
2,2:36
2,3:36
2,4:36
2,5:36
2,6:36
2,7:36
2,14:8
2,15:67
2,16:8
2,17:67
2,19:8
2,20:17
2,21:17
2,22:8
2,23:17
2,24:17
2,25:8
2,26:8
2,27:8
2,28:8
2,29:17
2,30:17
2,31:17
2,32:17
2,33:17
2,34:17
2,35:17
3,1:36
3,2:36
3,3:36
3,4:36
3,5:36
3,6:36
3,7:36
3,14:8
3,15:67
3,16:8
3,17:67
3,19:8
3,20:17
3,21:17
3,22:8
3,23:17
3,24:17
3,25:8
3,26:8
3,27:8
3,28:8
3,29:17
3,30:17
3,31:17
3,32:17
3,33:17
3,34:17
3,35:17
4,1:36
4,2:36
4,3:36
4,4:36
4,5:36
4,6:36
4,7:36
5,1:36
5,2:36
5,3:36
5,4:36
5,5:36
5,6:36
5,7:36
6,1:36
6,2:36
6,3:36
6,4:36
6,5:36
6,6:36
6,7:36
7,1:36
7,2:36
7,3:36
7,4:36
7,5:36
7,6:36
7,7:36
8,1:117
8,2:117
8,3:117
8,4:117
8,5:117
8,6:117
8,7:117
8,8:36
9,1:117
9,2:117
9,3:117
9,4:117
9,5:117
9,6:117
9,7:117
9,8:36
9,9:36
10,1:117
10,2:117
10,3:117
10,4:117
10,5:117
10,6:117
10,7:117
10,8:36
10,9:36
10,10:36
11,1:117
11,2:117
11,3:117
11,4:117
11,5:117
11,6:117
11,7:117
11,8:36
11,9:36
11,10:36
11,11:36
12,1:117
12,2:117
12,3:117
12,4:117
12,5:117
12,6:117
12,7:117
12,8:36
12,9:36
12,10:36
12,11:36
12,12:36
13,1:117
13,2:117
13,3:117
13,4:117
13,5:117
13,6:117
13,7:117
13,8:36
13,9:36
13,10:36
13,11:36
13,12:36
13,13:36
13,14:89
13,15:148
14,1:64
14,2:64
14,3:64
14,4:64
14,5:64
14,6:64
14,7:64
14,14:36
14,15:95
14,16:36
14,17:95
14,19:36
14,20:45
14,21:45
14,23:45
14,24:45
15,1:5
15,2:5
15,3:5
15,4:5
15,5:5
15,6:5
15,7:5
15,15:36
16,1:64
16,2:64
16,3:64
16,4:64
16,5:64
16,6:64
16,7:64
16,14:36
16,15:95
16,16:36
16,17:95
16,19:36
16,20:45
16,21:45
16,22:36
16,23:45
16,24:45
16,25:36
16,26:36
16,27:36
16,28:36
16,32:45
16,33:45
16,34:45
17,1:5
17,2:5
17,3:5
17,4:5
17,5:5
17,6:5
17,7:5
17,15:36
17,17:36
18,1:117
18,2:117
18,3:117
18,4:117
18,5:117
18,6:117
18,7:117
18,8:36
18,9:36
18,10:36
18,11:36
18,12:36
18,13:36
18,14:89
18,15:148
18,16:89
18,17:148
18,18:36
18,19:89
18,20:98
18,21:98
18,22:89
18,23:98
18,24:98
18,25:89
18,26:89
18,27:89
18,28:89
18,29:98
18,30:98
18,31:98
18,32:98
18,33:98
18,34:98
18,35:98
18,36:98
18,37:98
18,38:98
18,39:98
18,40:162
18,41:162
19,1:64
19,2:64
19,3:64
19,4:64
19,5:64
19,6:64
19,7:64
19,14:36
19,15:95
19,16:36
19,17:95
19,19:36
20,1:55
20,2:55
20,3:55
20,4:55
20,5:55
20,6:55
20,7:55
20,14:27
20,15:86
20,16:27
20,17:86
20,19:27
20,20:36
20,21:36
20,22:27
20,24:36
20,25:27
20,26:27
20,27:27
20,28:27
20,29:36
20,30:36
20,31:36
20,32:36
20,33:36
20,34:36
20,35:36
21,1:55
21,2:55
21,3:55
21,4:55
21,5:55
21,6:55
21,7:55
21,14:27
21,15:86
21,16:27
21,17:86
21,19:27
21,20:36
21,21:36
21,22:27
21,23:36
21,25:27
21,26:27
21,27:27
21,28:27
21,29:36
21,30:36
21,31:36
21,32:36
21,33:36
21,34:36
21,35:36
22,1:64
22,2:64
22,3:64
22,4:64
22,5:64
22,6:64
22,7:64
22,14:36
22,15:95
22,16:36
22,17:95
22,19:36
22,20:45
22,21:45
22,22:36
22,23:45
22,24:45
23,1:55
23,2:55
23,3:55
23,4:55
23,5:55
23,6:55
23,7:55
23,14:27
23,15:86
23,16:27
23,17:86
23,19:27
23,20:36
23,21:36
23,22:27
23,23:36
23,24:36
23,25:27
23,26:27
23,27:27
23,28:27
23,29:36
23,30:36
23,31:36
23,32:36
23,33:36
23,34:36
23,35:36
24,1:55
24,2:55
24,3:55
24,4:55
24,5:55
24,6:55
24,7:55
24,14:27
24,15:86
24,16:27
24,17:86
24,19:27
24,20:36
24,21:36
24,22:27
24,23:36
24,24:36
24,25:27
24,26:27
24,27:27
24,28:27
24,29:36
24,30:36
24,31:36
24,32:36
24,33:36
24,34:36
24,35:36
25,1:64
25,2:64
25,3:64
25,4:64
25,5:64
25,6:64
25,7:64
25,14:36
25,15:95
25,16:36
25,17:95
25,19:36
25,20:45
25,21:45
25,22:36
25,23:45
25,24:45
25,25:36
26,1:64
26,2:64
26,3:64
26,4:64
26,5:64
26,6:64
26,7:64
26,14:36
26,15:95
26,16:36
26,17:95
26,19:36
26,20:45
26,21:45
26,22:36
26,23:45
26,24:45
26,25:36
26,26:36
27,1:64
27,2:64
27,3:64
27,4:64
27,5:64
27,6:64
27,7:64
27,14:36
27,15:95
27,16:36
27,17:95
27,19:36
27,20:45
27,21:45
27,22:36
27,23:45
27,24:45
27,25:36
27,26:36
27,27:36
28,1:64
28,2:64
28,3:64
28,4:64
28,5:64
28,6:64
28,7:64
28,14:36
28,15:95
28,16:36
28,17:95
28,19:36
28,20:45
28,21:45
28,22:36
28,23:45
28,24:45
28,25:36
28,26:36
28,27:36
28,28:36
29,1:55
29,2:55
29,3:55
29,4:55
29,5:55
29,6:55
29,7:55
29,14:27
29,15:86
29,16:27
29,17:86
29,19:27
29,20:36
29,21:36
29,22:27
29,23:36
29,24:36
29,25:27
29,26:27
29,27:27
29,28:27
29,29:36
29,30:36
29,31:36
29,32:36
29,33:36
29,34:36
30,1:55
30,2:55
30,3:55
30,4:55
30,5:55
30,6:55
30,7:55
30,14:27
30,15:86
30,16:27
30,17:86
30,19:27
30,20:36
30,21:36
30,22:27
30,23:36
30,24:36
30,25:27
30,26:27
30,27:27
30,28:27
30,29:36
30,30:36
30,31:36
30,32:36
30,33:36
30,34:36
31,1:55
31,2:55
31,3:55
31,4:55
31,5:55
31,6:55
31,7:55
31,14:27
31,15:86
31,16:27
31,17:86
31,19:27
31,20:36
31,21:36
31,22:27
31,23:36
31,24:36
31,25:27
31,26:27
31,27:27
31,28:27
31,29:36
31,30:36
31,31:36
31,32:36
31,33:36
31,34:36
32,1:55
32,2:55
32,3:55
32,4:55
32,5:55
32,6:55
32,7:55
32,14:27
32,15:86
32,16:27
32,17:86
32,19:27
32,20:36
32,21:36
32,22:27
32,23:36
32,24:36
32,25:27
32,26:27
32,27:27
32,28:27
32,29:36
32,30:36
32,31:36
32,32:36
32,33:36
32,34:36
33,1:55
33,2:55
33,3:55
33,4:55
33,5:55
33,6:55
33,7:55
33,14:27
33,15:86
33,16:27
33,17:86
33,19:27
33,20:36
33,21:36
33,22:27
33,23:36
33,24:36
33,25:27
33,26:27
33,27:27
33,28:27
33,29:36
33,30:36
33,31:36
33,32:36
33,33:36
33,34:36
34,1:55
34,2:55
34,3:55
34,4:55
34,5:55
34,6:55
34,7:55
34,14:27
34,15:86
34,16:27
34,17:86
34,19:27
34,20:36
34,21:36
34,22:27
34,23:36
34,24:36
34,25:27
34,26:27
34,27:27
34,28:27
34,29:36
34,30:36
34,31:36
34,32:36
34,33:36
34,34:36
35,1:55
35,2:55
35,3:55
35,4:55
35,5:55
35,6:55
35,7:55
35,14:27
35,15:86
35,16:27
35,17:86
35,19:27
35,20:36
35,21:36
35,22:27
35,23:36
35,24:36
35,25:27
35,26:27
35,27:27
35,28:27
35,29:36
35,30:36
35,31:36
35,32:36
35,33:36
35,34:36
35,35:36
36,1:55
36,2:55
36,3:55
36,4:55
36,5:55
36,6:55
36,7:55
36,14:27
36,15:86
36,16:27
36,17:86
36,19:27
36,20:36
36,21:36
36,22:27
36,23:36
36,24:36
36,25:27
36,26:27
36,27:27
36,28:27
36,29:36
36,30:36
36,31:36
36,32:36
36,33:36
36,34:36
36,35:36
36,36:36
37,1:55
37,2:55
37,3:55
37,4:55
37,5:55
37,6:55
37,7:55
37,14:27
37,15:86
37,16:27
37,17:86
37,19:27
37,20:36
37,21:36
37,22:27
37,23:36
37,24:36
37,25:27
37,26:27
37,27:27
37,28:27
37,29:36
37,30:36
37,31:36
37,32:36
37,33:36
37,34:36
37,35:36
37,36:36
37,37:36
38,1:55
38,2:55
38,3:55
38,4:55
38,5:55
38,6:55
38,7:55
38,14:27
38,15:86
38,16:27
38,17:86
38,19:27
38,20:36
38,21:36
38,22:27
38,23:36
38,24:36
38,25:27
38,26:27
38,27:27
38,28:27
38,29:36
38,30:36
38,31:36
38,32:36
38,33:36
38,34:36
38,35:36
38,36:36
38,37:36
38,38:36
38,39:36
38,40:100
39,1:55
39,2:55
39,3:55
39,4:55
39,5:55
39,6:55
39,7:55
39,14:27
39,15:86
39,16:27
39,17:86
39,19:27
39,20:36
39,21:36
39,22:27
39,23:36
39,24:36
39,25:27
39,26:27
39,27:27
39,28:27
39,29:36
39,30:36
39,31:36
39,32:36
39,33:36
39,34:36
39,35:36
39,36:36
39,37:36
39,38:36
39,39:36
39,40:100
40,15:22
40,17:22
40,40:36
41,15:22
41,17:22
41,40:36
41,41:36
42,15:22
42,17:22
42,40:36
42,41:36
42,42:36
43,1:33
43,2:33
43,3:33
43,4:33
43,5:33
43,6:33
43,7:33
43,14:5
43,15:64
43,16:5
43,17:64
43,19:5
43,20:14
43,21:14
43,22:5
43,23:14
43,24:14
43,25:5
43,26:5
43,27:5
43,28:5
43,29:14
43,30:14
43,31:14
43,32:14
43,33:14
43,34:14
43,35:14
43,36:14
43,37:14
43,38:14
43,39:14
43,40:78
43,41:78
43,42:78
43,43:36
43,44:36
43,45:36
43,46:36
43,47:36
43,49:36
43,50:103
44,1:33
44,2:33
44,3:33
44,4:33
44,5:33
44,6:33
44,7:33
44,14:5
44,15:64
44,16:5
44,17:64
44,19:5
44,20:14
44,21:14
44,22:5
44,23:14
44,24:14
44,25:5
44,26:5
44,27:5
44,28:5
44,29:14
44,30:14
44,31:14
44,32:14
44,33:14
44,34:14
44,35:14
44,36:14
44,37:14
44,38:14
44,39:14
44,40:78
44,41:78
44,42:78
44,43:36
44,44:36
44,45:36
44,46:36
44,47:36
44,48:36
44,50:103
45,1:33
45,2:33
45,3:33
45,4:33
45,5:33
45,6:33
45,7:33
45,14:5
45,15:64
45,16:5
45,17:64
45,19:5
45,20:14
45,21:14
45,22:5
45,23:14
45,24:14
45,25:5
45,26:5
45,27:5
45,28:5
45,29:14
45,30:14
45,31:14
45,32:14
45,33:14
45,34:14
45,35:14
45,36:14
45,37:14
45,38:14
45,39:14
45,40:78
45,41:78
45,42:78
45,43:36
45,44:36
45,45:36
45,46:36
45,47:36
45,48:36
45,49:36
45,50:103
46,1:33
46,2:33
46,3:33
46,4:33
46,5:33
46,6:33
46,7:33
46,14:5
46,15:64
46,16:5
46,17:64
46,19:5
46,20:14
46,21:14
46,22:5
46,23:14
46,24:14
46,25:5
46,26:5
46,27:5
46,28:5
46,29:14
46,30:14
46,31:14
46,32:14
46,33:14
46,34:14
46,35:14
46,36:14
46,37:14
46,38:14
46,39:14
46,40:78
46,41:78
46,42:78
46,43:36
46,44:36
46,45:36
46,46:36
46,47:36
46,48:36
46,49:36
47,1:33
47,2:33
47,3:33
47,4:33
47,5:33
47,6:33
47,7:33
47,14:5
47,15:64
47,16:5
47,17:64
47,19:5
47,20:14
47,21:14
47,22:5
47,23:14
47,24:14
47,25:5
47,26:5
47,27:5
47,28:5
47,29:14
47,30:14
47,31:14
47,32:14
47,33:14
47,34:14
47,35:14
47,36:14
47,37:14
47,38:14
47,39:14
47,40:78
47,41:78
47,42:78
47,43:36
47,44:36
47,45:36
47,46:36
47,47:36
47,48:36
47,49:36
47,50:103
48,1:33
48,2:33
48,3:33
48,4:33
48,5:33
48,6:33
48,7:33
48,14:5
48,15:64
48,16:5
48,17:64
48,19:5
48,20:14
48,21:14
48,22:5
48,23:14
48,24:14
48,25:5
48,26:5
48,27:5
48,28:5
48,29:14
48,30:14
48,31:14
48,32:14
48,33:14
48,34:14
48,35:14
48,36:14
48,37:14
48,38:14
48,39:14
48,40:78
48,41:78
48,42:78
48,43:36
48,44:36
48,45:36
48,46:36
48,47:36
48,48:36
48,49:36
48,50:103
49,1:33
49,2:33
49,3:33
49,4:33
49,5:33
49,6:33
49,7:33
49,14:5
49,15:64
49,16:5
49,17:64
49,19:5
49,20:14
49,21:14
49,22:5
49,23:14
49,24:14
49,25:5
49,26:5
49,27:5
49,28:5
49,29:14
49,30:14
49,31:14
49,32:14
49,33:14
49,34:14
49,35:14
49,36:14
49,37:14
49,38:14
49,39:14
49,40:78
49,41:78
49,42:78
49,43:36
49,44:36
49,45:36
49,46:36
49,47:36
49,48:36
49,49:36
49,50:103
50,40:11
50,41:11
50,42:11
50,50:36
51,40:11
51,41:11
51,42:11
51,50:36
51,51:36
51,52:36
52,40:11
52,41:11
52,42:11
52,50:36
52,51:36
52,52:36
53,40:11
53,41:11
53,42:11
53,50:36
53,51:36
53,52:36
53,53:36

<end>

<optimal SALBP-1 value>
8


<rand seed>
467321153

